; Automatically generated by map2smt

(set-logic HORN)




(declare-fun new5 (Int Int) Bool)
(declare-fun new4 (Int Int Int Int Int) Bool)
(declare-fun new3 (Int Int Int) Bool)
(declare-fun new2 (Int Int Int Int Int) Bool)
(declare-fun new14 (Int Int) Bool)
(declare-fun new1 (Int Int Int) Bool)
(declare-fun ff () Bool)

(assert
  (forall ( (A Int) (B Int) )
    (=>
      (= B 0)
      (new14 A B)
    )
  )
)
(assert
  (forall ( (A Int) (B Int) (C Int) )
    (=>
      (and
        (= B (+ 1 C))
        (new14 A C)
      )
      (new14 A B)
    )
  )
)
(assert
  (forall ( (A Int) (B Int) (C Int) )
    (=>
      (and
        (>= (- C A) 1)
        (new14 A B)
      )
      (new14 A B)
    )
  )
)
(assert
  (forall ( (A Int) (B Int) (C Int) )
    (=>
      (and
        (<= (- C A) (- 1))
        (new14 A B)
      )
      (new14 A B)
    )
  )
)
(assert
  (forall ( (A Int) (B Int) )
    (=>
      (= B 0)
      (new5 A B)
    )
  )
)
(assert
  (forall ( (A Int) (B Int) (C Int) )
    (=>
      (and
        (= B (+ 1 C))
        (new5 A C)
      )
      (new5 A B)
    )
  )
)
(assert
  (forall ( (A Int) (B Int) (C Int) )
    (=>
      (and
        (>= (- C A) 1)
        (new5 A B)
      )
      (new5 A B)
    )
  )
)
(assert
  (forall ( (A Int) (B Int) (C Int) )
    (=>
      (and
        (<= (- C A) (- 1))
        (new5 A B)
      )
      (new5 A B)
    )
  )
)
(assert
  (forall ( (A Int) (B Int) (C Int) (D Int) )
    (=>
      (and
        (= D 0)
        (= C (+ 1 D))
        (= B 0)
      )
      (new4 A B A A C)
    )
  )
)
(assert
  (forall ( (A Int) (B Int) (C Int) (D Int) )
    (=>
      (and
        (>= (- C A) 1)
        (= D 0)
        (= B 0)
      )
      (new4 A B A C D)
    )
  )
)
(assert
  (forall ( (A Int) (B Int) (C Int) (D Int) )
    (=>
      (and
        (<= (- C A) (- 1))
        (= D 0)
        (= B 0)
      )
      (new4 A B A C D)
    )
  )
)
(assert
  (forall ( (A Int) (B Int) (C Int) (D Int) (E Int) )
    (=>
      (and
        (= D (+ 1 E))
        (= C (+ 1 D))
        (= B (+ 1 E))
        (new5 A E)
      )
      (new4 A B A A C)
    )
  )
)
(assert
  (forall ( (A Int) (B Int) (C Int) (D Int) (E Int) )
    (=>
      (and
        (>= (- C A) 1)
        (= D (+ 1 E))
        (= B (+ 1 E))
        (new5 A E)
      )
      (new4 A B A C D)
    )
  )
)
(assert
  (forall ( (A Int) (B Int) (C Int) (D Int) (E Int) )
    (=>
      (and
        (<= (- C A) (- 1))
        (= D (+ 1 E))
        (= B (+ 1 E))
        (new5 A E)
      )
      (new4 A B A C D)
    )
  )
)
(assert
  (forall ( (A Int) (B Int) (C Int) (D Int) )
    (=>
      (and
        (>= (- D A) 1)
        (>= (- D A) 1)
        (= C (+ 1 B))
        (new5 A B)
      )
      (new4 A B A A C)
    )
  )
)
(assert
  (forall ( (A Int) (B Int) (C Int) (D Int) )
    (=>
      (and
        (>= (- D A) 1)
        (>= (- D A) 1)
        (>= (- C A) 1)
        (new5 A B)
      )
      (new4 A B A C B)
    )
  )
)
(assert
  (forall ( (A Int) (B Int) (C Int) (D Int) )
    (=>
      (and
        (>= (- D A) 1)
        (>= (- D A) 1)
        (<= (- C A) (- 1))
        (new5 A B)
      )
      (new4 A B A C B)
    )
  )
)
(assert
  (forall ( (A Int) (B Int) (C Int) (D Int) )
    (=>
      (and
        (<= (- D A) (- 1))
        (<= (- D A) (- 1))
        (= C (+ 1 B))
        (new5 A B)
      )
      (new4 A B A A C)
    )
  )
)
(assert
  (forall ( (A Int) (B Int) (C Int) (D Int) )
    (=>
      (and
        (>= (- C A) 1)
        (<= (- D A) (- 1))
        (<= (- D A) (- 1))
        (new5 A B)
      )
      (new4 A B A C B)
    )
  )
)
(assert
  (forall ( (A Int) (B Int) (C Int) (D Int) )
    (=>
      (and
        (<= (- D A) (- 1))
        (<= (- D A) (- 1))
        (<= (- C A) (- 1))
        (new5 A B)
      )
      (new4 A B A C B)
    )
  )
)
(assert
  (forall ( (A Int) (B Int) (C Int) )
    (=>
      (and
        (= C 0)
        (= B (+ 1 C))
      )
      (new3 A A B)
    )
  )
)
(assert
  (forall ( (A Int) (B Int) (C Int) )
    (=>
      (and
        (>= (- B A) 1)
        (= C 0)
      )
      (new3 A B C)
    )
  )
)
(assert
  (forall ( (A Int) (B Int) (C Int) )
    (=>
      (and
        (<= (- B A) (- 1))
        (= C 0)
      )
      (new3 A B C)
    )
  )
)
(assert
  (forall ( (A Int) (B Int) (C Int) (D Int) )
    (=>
      (and
        (= D 0)
        (= C (+ 1 D))
        (= B 0)
      )
      (new2 A B A A C)
    )
  )
)
(assert
  (forall ( (A Int) (B Int) (C Int) (D Int) )
    (=>
      (and
        (>= (- C A) 1)
        (= D 0)
        (= B 0)
      )
      (new2 A B A C D)
    )
  )
)
(assert
  (forall ( (A Int) (B Int) (C Int) (D Int) )
    (=>
      (and
        (<= (- C A) (- 1))
        (= D 0)
        (= B 0)
      )
      (new2 A B A C D)
    )
  )
)
(assert
  (forall ( (A Int) (B Int) (C Int) (D Int) (E Int) )
    (=>
      (and
        (= D (+ 1 E))
        (= C (+ 1 D))
        (= B (+ 1 E))
        (new14 A E)
      )
      (new2 A B A A C)
    )
  )
)
(assert
  (forall ( (A Int) (B Int) (C Int) (D Int) (E Int) )
    (=>
      (and
        (>= (- C A) 1)
        (= D (+ 1 E))
        (= B (+ 1 E))
        (new14 A E)
      )
      (new2 A B A C D)
    )
  )
)
(assert
  (forall ( (A Int) (B Int) (C Int) (D Int) (E Int) )
    (=>
      (and
        (<= (- C A) (- 1))
        (= D (+ 1 E))
        (= B (+ 1 E))
        (new14 A E)
      )
      (new2 A B A C D)
    )
  )
)
(assert
  (forall ( (A Int) (B Int) (C Int) (D Int) )
    (=>
      (and
        (>= (- D A) 1)
        (>= (- D A) 1)
        (= C (+ 1 B))
        (new14 A B)
      )
      (new2 A B A A C)
    )
  )
)
(assert
  (forall ( (A Int) (B Int) (C Int) (D Int) )
    (=>
      (and
        (>= (- D A) 1)
        (>= (- D A) 1)
        (>= (- C A) 1)
        (new14 A B)
      )
      (new2 A B A C B)
    )
  )
)
(assert
  (forall ( (A Int) (B Int) (C Int) (D Int) )
    (=>
      (and
        (>= (- D A) 1)
        (>= (- D A) 1)
        (<= (- C A) (- 1))
        (new14 A B)
      )
      (new2 A B A C B)
    )
  )
)
(assert
  (forall ( (A Int) (B Int) (C Int) (D Int) )
    (=>
      (and
        (<= (- D A) (- 1))
        (<= (- D A) (- 1))
        (= C (+ 1 B))
        (new14 A B)
      )
      (new2 A B A A C)
    )
  )
)
(assert
  (forall ( (A Int) (B Int) (C Int) (D Int) )
    (=>
      (and
        (>= (- C A) 1)
        (<= (- D A) (- 1))
        (<= (- D A) (- 1))
        (new14 A B)
      )
      (new2 A B A C B)
    )
  )
)
(assert
  (forall ( (A Int) (B Int) (C Int) (D Int) )
    (=>
      (and
        (<= (- D A) (- 1))
        (<= (- D A) (- 1))
        (<= (- C A) (- 1))
        (new14 A B)
      )
      (new2 A B A C B)
    )
  )
)
(assert
  (forall ( (A Int) (B Int) (C Int) )
    (=>
      (and
        (= C 0)
        (= B (+ 1 C))
      )
      (new1 A A B)
    )
  )
)
(assert
  (forall ( (A Int) (B Int) (C Int) )
    (=>
      (and
        (>= (- B A) 1)
        (= C 0)
      )
      (new1 A B C)
    )
  )
)
(assert
  (forall ( (A Int) (B Int) (C Int) )
    (=>
      (and
        (<= (- B A) (- 1))
        (= C 0)
      )
      (new1 A B C)
    )
  )
)
(assert
  (forall ( (A Int) (B Int) (C Int) (D Int) (E Int) (F Int) )
    (=>
      (and
        (<= (+ A 1) B)
        (= (+ C D) B)
        (new1 E F C)
        (new2 E D E F A)
      )
      ff
    )
  )
)
(assert
  (forall ( (A Int) (B Int) (C Int) (D Int) (E Int) (F Int) )
    (=>
      (and
        (>= A (+ B 1))
        (= (+ C D) B)
        (new3 E F C)
        (new4 E D E F A)
      )
      ff
    )
  )
)

(assert (not ff))
(check-sat)
